4 
5  17 39 59 
6  13 20 28 35 43 51 57 
7  06 13 21 27 33 41 48 56 
8  03 11 18 26 33 41 48 56 
9  03 11 18 26 33 41 48 56 
10  03 11 18 26 33 41 48 56 
11  03 11 18 26 33 41 48 56 
12  03 11 18 26 33 41 48 56 
13  03 11 18 27 34 42 49 57 
14  04 12 19 27 34 42 49 57 
15  04 12 19 27 33 42 49 57 
16  04 12 19 27 33 42 49 57 
17  04 12 19 27 34 42 49 57 
18  04 12 19 27 34 42 49 57 
19  05 12 19 26 33 41 48 56 
20  03 11 18 26 33 43 58 
21  13 28 43 58 
22  13 28 40 53 
23  08 23 
0 
